Executando Fernandes MODIFICADO
Rodando pra 1h
Optimize a model with 97 rows, 102 columns and 1088 nonzeros
Coefficient statistics:
  Matrix range    [1e+00, 1e+07]
  Objective range [2e-01, 2e-01]
  Bounds range    [1e+00, 1e+07]
  RHS range       [1e+00, 4e+00]
Found heuristic solution: objective 272
Presolve removed 35 rows and 28 columns
Presolve time: 0.00s
Presolved: 62 rows, 74 columns, 600 nonzeros
Variable types: 20 continuous, 54 integer (50 binary)

Root relaxation: objective 0.000000e+00, 25 iterations, 0.00 seconds

    Nodes    |    Current Node    |     Objective Bounds      |     Work
 Expl Unexpl |  Obj  Depth IntInf | Incumbent    BestBd   Gap | It/Node Time

     0     0    0.00000    0   12  272.00000    0.00000   100%     -    0s
H    0     0                     224.0000000    0.00000   100%     -    0s
H    0     0                     199.5000000    0.00000   100%     -    0s
     0     0    0.00000    0   15  199.50000    0.00000   100%     -    0s
     0     0    0.00000    0   16  199.50000    0.00000   100%     -    0s
     0     0    1.28504    0   25  199.50000    1.28504  99.4%     -    0s
     0     0    4.23447    0   23  199.50000    4.23447  97.9%     -    0s
     0     0    5.58416    0   26  199.50000    5.58416  97.2%     -    0s
     0     0    5.94327    0   27  199.50000    5.94327  97.0%     -    0s
     0     0    9.19939    0   33  199.50000    9.19939  95.4%     -    0s
H    0     0                     187.0000000    9.19939  95.1%     -    0s
     0     0   10.68847    0   38  187.00000   10.68847  94.3%     -    0s
     0     0   16.16533    0   41  187.00000   16.16533  91.4%     -    0s
     0     0   16.21925    0   42  187.00000   16.21925  91.3%     -    0s
     0     0   17.50287    0   45  187.00000   17.50287  90.6%     -    0s
     0     0   17.79443    0   46  187.00000   17.79443  90.5%     -    0s
     0     0   19.56439    0   44  187.00000   19.56439  89.5%     -    0s
     0     0   19.69054    0   43  187.00000   19.69054  89.5%     -    0s
     0     0   23.36170    0   40  187.00000   23.36170  87.5%     -    0s
     0     0   23.50720    0   41  187.00000   23.50720  87.4%     -    0s
     0     0   24.89433    0   42  187.00000   24.89433  86.7%     -    0s
     0     0   24.95390    0   42  187.00000   24.95390  86.7%     -    0s
     0     0   25.23832    0   42  187.00000   25.23832  86.5%     -    0s
     0     0   25.23832    0   42  187.00000   25.23832  86.5%     -    0s
     0     2   25.23832    0   42  187.00000   25.23832  86.5%     -    0s
*  252   138              13     181.7500000   49.03348  73.0%   9.0    0s
*  258   133              15     177.0000000   49.03348  72.3%   8.9    0s
*  783   273              14     176.0000000   65.99042  62.5%   8.1    0s
* 1651   405              31     171.7500000   83.29616  51.5%   9.4    0s
* 1842   354              32     167.2500000   85.43042  48.9%   9.3    0s

Cutting planes:
  Gomory: 4
  MIR: 88
  Flow cover: 54
  Flow path: 4
  Zero half: 2
  Network: 16

Explored 7987 nodes (72070 simplex iterations) in 3.11 seconds
Thread count was 1 (of 4 available processors)

Optimal solution found (tolerance 1.00e-04)
Best objective 1.672500000000e+02, best bound 1.672500000000e+02, gap 0.0%
Tempo: 3.1 segundos

0 3 10 17 78 53 53 80 69 2 
1 2 50 20 46 15 17 63 14 75 
2 3 22 21 23 10 80 43 73 45 
3 4 47 15 87 56 63 9 31 31 
(129 73 234 134 213 195 187 153 )

